Running for instance ./models/rc207.txt
Generating routes...
Execution time:  2.91423  seconds
Academic license - for non-commercial use only
Warning: constraint name "Cliente esta na rota x1" has a space
Optimize a model with 26 rows, 10000 columns and 85729 nonzeros
Variable types: 0 continuous, 10000 integer (0 binary)
Coefficient statistics:
  Matrix range     [1e+00, 1e+00]
  Objective range  [6e+01, 5e+02]
  Bounds range     [1e+00, 1e+00]
  RHS range        [1e+00, 2e+01]
Found heuristic solution: objective 826.6128960
Presolve removed 1 rows and 4165 columns
Presolve time: 0.06s
Presolved: 25 rows, 5835 columns, 42671 nonzeros
Found heuristic solution: objective 706.8385399
Variable types: 0 continuous, 5835 integer (5835 binary)

Root relaxation: objective 4.555335e+02, 63 iterations, 0.01 seconds

    Nodes    |    Current Node    |     Objective Bounds      |     Work
 Expl Unexpl |  Obj  Depth IntInf | Incumbent    BestBd   Gap | It/Node Time

     0     0  455.53346    0   17  706.83854  455.53346  35.6%     -    0s
H    0     0                     589.5504528  455.53346  22.7%     -    0s
     0     0  455.53346    0   17  589.55045  455.53346  22.7%     -    0s
H    0     0                     503.3220706  455.53346  9.49%     -    0s
*    0     0               0     461.1139524  461.11395  0.00%     -    0s

Explored 1 nodes (110 simplex iterations) in 0.23 seconds
Thread count was 8 (of 8 available processors)

Solution count 4: 461.114 503.322 589.55 706.839 

Optimal solution found (tolerance 1.00e-04)
Best objective 4.611139524376e+02, best bound 4.611139524376e+02, gap 0.0000%

Routes:
19 18 23 21 22
12 14 13 17 16 15 11 10 9 20 24 25 4 1
7 2 5 8 3 6

Distance: 461.113952438
Execution time:  4.142481  seconds
